
  32    1
  10

   0   0   6 2 3 4 5 6 15 
   6   1   6 21 17 16 9 8 7 
   5   2   5 17 14 11 9 8 
   2   5   5 26 17 14 9 7 
   1   7   5 26 25 17 12 11 
   6   2   5 26 19 18 17 13 
   1   6   4 25 20 12 11 
   1   5   4 26 20 12 10 
   8   7   3 24 22 13 
   2   5   5 30 25 24 23 19 
   7   2   4 31 30 22 18 
   9   5   4 30 24 23 19 
  10   1   4 31 29 25 20 
   4   4   3 30 22 18 
   6   6   3 31 30 18 
   1   5   4 29 28 26 23 
   2   5   2 29 20 
   5   4   3 28 24 23 
   6   3   4 31 29 28 27 
   8   5   3 30 28 23 
   7   3   3 31 28 27 
   1   7   2 29 23 
   8   3   1 27 
  10   5   1 29 
   3   4   1 28 
   5   4   1 30 
   2   1   1 32
   4   3   1 32
   5   3   1 32
   7   3   1 32
   2   4   1 32
   0   0   0 
